s td 120 9 128
b 1 15 16
b 2 113 114
b 3 1 2 18
b 4 2 3 18
b 5 3 4 5
b 6 5 6 7
b 7 7 8 9
b 8 9 10 11
b 9 11 12 13
b 10 13 14 15
b 11 13 15 32
b 12 17 18 34
b 13 13 31 32
b 14 33 34 50
b 15 31 47 48
b 16 49 50 66
b 17 47 63 64
b 18 65 66 82
b 19 63 79 80
b 20 81 82 98
b 21 79 95 96
b 22 97 98 114
b 23 95 111 112
b 24 98 114 115
b 25 98 115 116
b 26 116 117 118
b 27 118 119 120
b 28 120 121 122
b 29 122 123 124
b 30 124 125 126
b 31 126 127 128
b 32 111 126 128
b 33 11 13 30 31
b 34 3 5 21 39 57 72 90 108 124
b 35 5 21 39 57 72 75 90 108 124
b 36 5 21 39 57 75 90 93 108 124
b 37 5 21 39 57 75 93 95 108 124
b 38 5 21 39 57 75 77 93 95
b 39 5 21 39 57 59 75 77 95
b 40 5 21 23 39 57 59 77 95
b 41 5 23 39 41 57 59 77 95
b 42 5 23 41 59 77 79 95
b 43 5 23 41 59 61 77 79
b 44 5 23 41 43 59 61 79
b 45 5 23 25 41 43 61 79
b 46 5 7 23 25 43 61 79
b 47 7 25 43 61 63 79
b 48 7 25 43 45 61 63
b 49 7 25 27 43 45 63
b 50 7 9 25 27 45 63
b 51 9 27 45 47 63
b 52 9 11 27 45 47
b 53 11 27 29 45 47
b 54 11 27 28 29
b 55 11 29 31 47
b 56 11 29 30 31
b 57 29 45 46 47
b 58 9 25 26 27
b 59 27 43 44 45
b 60 45 61 62 63
b 61 7 23 24 25
b 62 25 41 42 43
b 63 43 59 60 61
b 64 61 77 78 79
b 65 23 39 40 41
b 66 41 57 58 59
b 67 5 21 22 23
b 68 59 75 76 77
b 69 77 93 94 95
b 70 93 95 108 124 126
b 71 93 95 108 110 126
b 72 108 109 110 126
b 73 95 110 111 126
b 74 75 90 92 93 108
b 75 90 91 92 108
b 76 57 72 74 75 90
b 77 72 73 74 90
b 78 3 21 39 54 57 72 90 108 124
b 79 3 21 36 39 54 72 90 108 124
b 80 3 21 34 36 54 72 90 108 124
b 81 3 19 21 34 36
b 82 3 18 19 34
b 83 3 19 20 21
b 84 34 36 52 54 72 90 108 124
b 85 34 35 36 52
b 86 34 52 54 70 72 90 108 124
b 87 34 52 70 72 90 106 108 124
b 88 34 52 70 72 87 90 106 124
b 89 34 52 70 87 106 122 124
b 90 34 52 70 87 103 106 122
b 91 34 52 70 86 87 103 122
b 92 34 50 52 70 86 103 122
b 93 50 52 67 70 86 103 122
b 94 50 52 67 69 70 86
b 95 50 51 52 67 69
b 96 51 67 68 69
b 97 50 67 82 86 103 122
b 98 50 66 67 82
b 99 67 82 86 103 118 122
b 100 67 82 85 86 103 118
b 101 67 82 85 100 103 118
b 102 67 82 83 85 100
b 103 67 83 84 85
b 104 82 100 116 118
b 105 82 99 100 116
b 106 85 100 101 103 118
b 107 85 101 102 103
b 108 103 118 120 122
b 109 87 103 105 106 122
b 110 87 103 104 105
b 111 70 72 87 89 90 106
b 112 70 72 87 88 89
b 113 70 71 72 88
b 114 106 107 108 124
b 115 52 53 54 70
b 116 21 36 38 39 54
b 117 36 37 38 54
b 118 39 54 56 57 72
b 119 54 55 56 72
b 120 82 98 99 116
1 11
2 24
3 4
4 82
5 34
6 46
7 50
8 52
9 33
10 11
11 13
12 82
13 33
14 92
15 55
16 98
17 51
18 98
19 47
20 120
21 42
22 24
23 73
24 25
25 120
26 104
27 108
28 108
29 89
30 70
31 32
32 73
33 56
34 35
34 78
35 36
35 76
36 37
36 74
37 38
37 70
38 39
38 69
39 40
39 68
40 41
40 67
41 42
41 65
41 66
42 43
43 44
43 64
44 45
44 63
45 46
45 62
46 47
46 61
47 48
48 49
48 60
49 50
49 59
50 51
50 58
51 52
52 53
53 54
53 55
53 57
55 56
70 71
71 72
71 73
74 75
76 77
78 79
78 118
79 80
79 116
80 81
80 84
81 82
81 83
84 85
84 86
86 87
86 115
87 88
87 114
88 89
88 111
89 90
90 91
90 109
91 92
92 93
93 94
93 97
94 95
95 96
97 98
97 99
99 100
99 108
100 101
101 102
101 104
101 106
102 103
104 105
105 120
106 107
109 110
111 112
112 113
116 117
118 119
